(set-logic QF_S)
(declare-fun x () String)
(declare-fun y () String)
(declare-fun z () Int)
(assert (not (= (str.suffixof (str.replace "A" x x) y) (str.suffixof "A" (str.replace x x y)))))
(check-sat)
